(push 1)
(assert (not (=> (and randomness-mapping-GBLG (invariant-GBLG state-left state-right state-length-left-old state-length-right-old return-left-gate-GBLG return-right-simgate-GBLG arg-GBLG-h arg-GBLG-l arg-GBLG-r arg-GBLG-op arg-GBLG-j)
)
 (lemma1-keys state-left state-right state-length-left-old state-length-right-old return-left-gate-GBLG return-right-simgate-GBLG arg-GBLG-h arg-GBLG-l arg-GBLG-r arg-GBLG-op arg-GBLG-j)
)
)
)
(check-sat)
(pop 1)
(push 1)
(assert (not (=> (and randomness-mapping-GBLG (invariant-GBLG state-left state-right state-length-left-old state-length-right-old return-left-gate-GBLG return-right-simgate-GBLG arg-GBLG-h arg-GBLG-l arg-GBLG-r arg-GBLG-op arg-GBLG-j)
 (no-abort state-left state-right state-length-left-old state-length-right-old return-left-gate-GBLG return-right-simgate-GBLG arg-GBLG-h arg-GBLG-l arg-GBLG-r arg-GBLG-op arg-GBLG-j)
 (lemma1-keys state-left state-right state-length-left-old state-length-right-old return-left-gate-GBLG return-right-simgate-GBLG arg-GBLG-h arg-GBLG-l arg-GBLG-r arg-GBLG-op arg-GBLG-j)
 (lemma2-keys state-left state-right state-length-left-old state-length-right-old return-left-gate-GBLG return-right-simgate-GBLG arg-GBLG-h arg-GBLG-l arg-GBLG-r arg-GBLG-op arg-GBLG-j)
)
 (same-output state-left state-right state-length-left-old state-length-right-old return-left-gate-GBLG return-right-simgate-GBLG arg-GBLG-h arg-GBLG-l arg-GBLG-r arg-GBLG-op arg-GBLG-j)
)
)
)
(check-sat)
